language Essence 1.3

letting pain be
        [[tuple (tuple ([6; int(4)])), tuple (tuple ([7; int(4)])); int(3, 4)],
         [tuple (tuple ([8; int(4)])), tuple (tuple ([9; int(4)])); int(3,
                                                                        4)]; int(1..2)]
